sat
(
  (define-fun MemProv4 () Int
    3750)
  (define-fun ProcProv5 () Int
    4)
  (define-fun C3_VM5 () Int
    0)
  (define-fun C1_VM8 () Int
    1)
  (define-fun C1_VM1 () Int
    0)
  (define-fun C2_VM10 () Int
    0)
  (define-fun ProcProv8 () Int
    2)
  (define-fun StorageProv9 () Int
    2000)
  (define-fun C5_VM8 () Int
    0)
  (define-fun C5_VM4 () Int
    0)
  (define-fun VM4Type () Int
    37)
  (define-fun C2_VM4 () Int
    0)
  (define-fun C4_VM8 () Int
    0)
  (define-fun PriceProv5 () Int
    252)
  (define-fun MemProv1 () Int
    7500)
  (define-fun C5_VM10 () Int
    0)
  (define-fun ProcProv10 () Int
    2)
  (define-fun ProcProv7 () Int
    4)
  (define-fun C4_VM3 () Int
    0)
  (define-fun VM7Type () Int
    26)
  (define-fun C1_VM10 () Int
    1)
  (define-fun VM5Type () Int
    26)
  (define-fun C2_VM1 () Int
    0)
  (define-fun C4_VM10 () Int
    0)
  (define-fun C5_VM7 () Int
    0)
  (define-fun C2_VM2 () Int
    0)
  (define-fun C3_VM10 () Int
    0)
  (define-fun StorageProv10 () Int
    2000)
  (define-fun C5_VM6 () Int
    0)
  (define-fun StorageProv2 () Int
    2000)
  (define-fun MemProv3 () Int
    3750)
  (define-fun ProcProv4 () Int
    2)
  (define-fun VM3Type () Int
    37)
  (define-fun VM9Type () Int
    37)
  (define-fun VM2Type () Int
    37)
  (define-fun C5_VM3 () Int
    0)
  (define-fun ProcProv2 () Int
    2)
  (define-fun C4_VM6 () Int
    0)
  (define-fun MemProv10 () Int
    3750)
  (define-fun C3_VM2 () Int
    0)
  (define-fun C1_VM4 () Int
    1)
  (define-fun C3_VM7 () Int
    1)
  (define-fun MemProv2 () Int
    3750)
  (define-fun ProcProv1 () Int
    4)
  (define-fun C1_VM9 () Int
    0)
  (define-fun MemProv9 () Int
    3750)
  (define-fun C1_VM5 () Int
    0)
  (define-fun PriceProv8 () Int
    128)
  (define-fun C5_VM9 () Int
    0)
  (define-fun StorageProv8 () Int
    2000)
  (define-fun StorageProv3 () Int
    2000)
  (define-fun VM1Type () Int
    26)
  (define-fun C5_VM5 () Int
    1)
  (define-fun VM6Type () Int
    37)
  (define-fun C3_VM4 () Int
    0)
  (define-fun C4_VM7 () Int
    0)
  (define-fun ProcProv6 () Int
    2)
  (define-fun C2_VM5 () Int
    0)
  (define-fun MemProv7 () Int
    7500)
  (define-fun C3_VM8 () Int
    0)
  (define-fun PriceProv4 () Int
    128)
  (define-fun PriceProv2 () Int
    128)
  (define-fun C3_VM9 () Int
    0)
  (define-fun PriceProv10 () Int
    128)
  (define-fun StorageProv7 () Int
    2000)
  (define-fun C5_VM2 () Int
    0)
  (define-fun PriceProv7 () Int
    252)
  (define-fun StorageProv4 () Int
    2000)
  (define-fun C4_VM1 () Int
    0)
  (define-fun C4_VM2 () Int
    0)
  (define-fun C2_VM8 () Int
    0)
  (define-fun C3_VM1 () Int
    0)
  (define-fun MemProv6 () Int
    3750)
  (define-fun PriceProv1 () Int
    252)
  (define-fun StorageProv5 () Int
    2000)
  (define-fun VM10Type () Int
    37)
  (define-fun StorageProv6 () Int
    2000)
  (define-fun C4_VM4 () Int
    0)
  (define-fun C1_VM6 () Int
    0)
  (define-fun MemProv5 () Int
    7500)
  (define-fun StorageProv1 () Int
    2000)
  (define-fun ProcProv3 () Int
    2)
  (define-fun C3_VM6 () Int
    0)
  (define-fun PriceProv9 () Int
    128)
  (define-fun PriceProv3 () Int
    128)
  (define-fun C3_VM3 () Int
    0)
  (define-fun C2_VM7 () Int
    0)
  (define-fun PriceProv6 () Int
    128)
  (define-fun MemProv8 () Int
    3750)
  (define-fun C1_VM7 () Int
    0)
  (define-fun C1_VM2 () Int
    1)
  (define-fun VM8Type () Int
    37)
  (define-fun ProcProv9 () Int
    2)
  (define-fun C4_VM9 () Int
    0)
  (define-fun C2_VM3 () Int
    1)
  (define-fun C1_VM3 () Int
    0)
  (define-fun C4_VM5 () Int
    0)
  (define-fun C2_VM9 () Int
    1)
  (define-fun C5_VM1 () Int
    1)
  (define-fun C2_VM6 () Int
    1)
)
(objectives
 ((+ 0
   PriceProv1
   PriceProv2
   PriceProv3
   PriceProv4
   PriceProv5
   PriceProv6
   PriceProv7
   PriceProv8
   PriceProv9
   PriceProv10) 1652)
)
(:added-eqs                   11094688
 :arith-eq-adapter            21706
 :arith-bound-propagations-lp 1764608
 :arith-conflicts             936
 :arith-diseq                 15586096
 :arith-fixed-eqs             97549
 :arith-lower                 23121827
 :arith-make-feasible         969747
 :arith-max-columns           196
 :arith-max-rows              32
 :arith-upper                 9173854
 :binary-propagations         104288851
 :conflicts                   493527
 :decisions                   716387
 :del-clause                  2287203
 :final-checks                229
 :max-memory                  187.28
 :memory                      187.10
 :minimized-lits              14134701
 :mk-bool-var                 46759
 :mk-clause                   2289551
 :mk-clause-binary            7233
 :num-allocs                  2340281112
 :num-checks                  175
 :pb-conflicts                33629
 :pb-predicates               767
 :pb-propagations             363609
 :pb-resolves                 13093
 :propagations                237859612
 :restarts                    1504
 :rlimit-count                728632764
 :time                        104.10
 :total-time                  104.10)
